\ File written by HiGHS .lp file handler
min
 obj: +1 FIC..... +1 FIP..... +1 FOC..... +1 FPC..... +1 FRP..... +1 FSC..... 
st
 FIC.....: -1 FIC..... +1109.58904 KL..TCL1 +1109.58904 KL..TDL1 +1109.58904 KL..TEL1 +1109.58904 KL..TFL1 +1109.58904 KL..TGL1 +3.69863 INV.G1TA +3.69863 INV.G2TA +3.69863 INV.G3TA +3.69863 INV.G4TA +3.69863 INV.G1TB +3.69863 INV.G2TB +3.69863 INV.G3TB +3.69863 INV.G4TB +3.69863 INV.G1TC +3.69863 INV.G2TC +3.69863 INV.G3TC +3.69863 INV.G4TC +3.69863 INV.G1TD +3.69863 INV.G2TD +3.69863 INV.G3TD +3.69863 INV.G4TD +3.69863 INV.G1TE +3.69863 INV.G2TE +3.69863 INV.G3TE +3.69863 INV.G4TE +3.69863 INV.G1TF +3.69863 INV.G2TF +3.69863 INV.G3TF +3.69863 INV.G4TF
 +3.69863 INV.G1TG +3.69863 INV.G2TG +3.69863 INV.G3TG +3.69863 INV.G4TG +3.69863 INV.G1TH +3.69863 INV.G2TH +3.69863 INV.G3TH +3.69863 INV.G4TH = +0
 FIP.....: -1 FIP..... -100 INVAG1TA -100 INVAG2TA -100 INVAG3TA -100 INVAG4TA -87.5 INVAG1TB -87.5 INVAG2TB -87.5 INVAG3TB -87.5 INVAG4TB -75 INVAG1TC -75 INVAG2TC -75 INVAG3TC -75 INVAG4TC -62.5 INVAG1TD -62.5 INVAG2TD -62.5 INVAG3TD -62.5 INVAG4TD -50 INVAG1TE -50 INVAG2TE -50 INVAG3TE -50 INVAG4TE -37.5 INVAG1TF -37.5 INVAG2TF -37.5 INVAG3TF -37.5 INVAG4TF -25 INVAG1TG -25 INVAG2TG -25 INVAG3TG -25 INVAG4TG -12.5 INVAG1TH -12.5 INVAG2TH -12.5 INVAG3TH -12.5 INVAG4TH = +0
 FOC.....: -1 FOC..... +60 YTP1..TA +60 YTP1..TB +60 YTP1..TC +60 YTP1..TD +60 YTP1..TE +60 YTP1..TF +60 YTP1..TG +60 YTP1..TH +30 YTP2..TA +30 YTP2..TB +30 YTP2..TC +30 YTP2..TD +30 YTP2..TE +30 YTP2..TF +30 YTP2..TG +30 YTP2..TH +40 YTP3..TA +40 YTP3..TB +40 YTP3..TC +40 YTP3..TD +40 YTP3..TE +40 YTP3..TF +40 YTP3..TG +40 YTP3..TH +50 YTP4..TA +50 YTP4..TB +50 YTP4..TC +50 YTP4..TD +50 YTP4..TE +50 YTP4..TF +50 YTP4..TG +50 YTP4..TH = +0
 FPC.....: -1 FPC..... = +0
 FRP.....: -1 FRP..... = +0
 FSC.....: -1 FSC..... +1 P.P1..TB +1 P.P1..TC +1 P.P1..TD +1 P.P1..TE +1 P.P1..TF +1 P.P1..TG +1 P.P1..TH +1 P.P2..TB +1 P.P2..TC +1 P.P2..TD +1 P.P2..TE +1 P.P2..TF +1 P.P2..TG +1 P.P2..TH +1 P.P3..TB +1 P.P3..TC +1 P.P3..TD +1 P.P3..TE +1 P.P3..TF +1 P.P3..TG +1 P.P3..TH +1 P.P4..TB +1 P.P4..TC +1 P.P4..TD +1 P.P4..TE +1 P.P4..TF +1 P.P4..TG +1 P.P4..TH +1 P.P5..TB +1 P.P5..TC +1 P.P5..TD +1 P.P5..TE +1 P.P5..TF +1 P.P5..TG +1 P.P5..TH = +0
 B...G1TA: +1 INV.G1T. -1 INV.G1TA -1 INVAG1TA +10 TIME..T. -10 TIME..TA -50 KYP1..TA +80 YTP1..TA = +0
 B...G2TA: +1 INV.G2T. -1 INV.G2TA -1 INVAG2TA +13 TIME..T. -13 TIME..TA -20 KYP2..TA +93 YTP2..TA = +0
 B...G3TA: +1 INV.G3T. -1 INV.G3TA -1 INVAG3TA +25 TIME..T. -25 TIME..TA -50 KYP3..TA +65 YTP3..TA = +0
 B...G4TA: +1 INV.G4T. -1 INV.G4TA -1 INVAG4TA +12 TIME..T. -12 TIME..TA -50 KYP4..TA +92 YTP4..TA = +0
 LY....TA: +1 KYP1..TA +1 KYP2..TA +1 KYP3..TA +1 KYP4..TA +1 KYP5..TA = +1
 T.....TA: +1 TIME..T. -1 TIME..TA +1 YTP1..TA +1 YTP2..TA +1 YTP3..TA +1 YTP4..TA +1 YTP5..TA = +0
 B...G1TB: +1 INV.G1TA -1 INV.G1TB +1 INVAG1TA -1 INVAG1TB +10 TIME..TA -10 TIME..TB -50 KYP1..TB +80 YTP1..TB = +0
 B...G2TB: +1 INV.G2TA -1 INV.G2TB +1 INVAG2TA -1 INVAG2TB +13 TIME..TA -13 TIME..TB -20 KYP2..TB +93 YTP2..TB = +0
 B...G3TB: +1 INV.G3TA -1 INV.G3TB +1 INVAG3TA -1 INVAG3TB +25 TIME..TA -25 TIME..TB -50 KYP3..TB +65 YTP3..TB = +0
 B...G4TB: +1 INV.G4TA -1 INV.G4TB +1 INVAG4TA -1 INVAG4TB +12 TIME..TA -12 TIME..TB -50 KYP4..TB +92 YTP4..TB = +0
 LY....TB: +1 KYP1..TB +1 KYP2..TB +1 KYP3..TB +1 KYP4..TB +1 KYP5..TB = +1
 T.....TB: +1 TIME..TA -1 TIME..TB +1 YTP1..TB +1 YTP2..TB +1 YTP3..TB +1 YTP4..TB +1 YTP5..TB = +0
 B...G1TC: +1 INV.G1TB -1 INV.G1TC +1 INVAG1TB -1 INVAG1TC +10 TIME..TB -10 TIME..TC -50 KYP1..TC +80 YTP1..TC = +0
 B...G2TC: +1 INV.G2TB -1 INV.G2TC +1 INVAG2TB -1 INVAG2TC +13 TIME..TB -13 TIME..TC -20 KYP2..TC +93 YTP2..TC = +0
 B...G3TC: -300 KL..TCL1 +1 INV.G3TB -1 INV.G3TC +1 INVAG3TB -1 INVAG3TC +25 TIME..TB -25 TIME..TC -50 KYP3..TC +65 YTP3..TC = +0
 B...G4TC: +1 INV.G4TB -1 INV.G4TC +1 INVAG4TB -1 INVAG4TC +12 TIME..TB -12 TIME..TC -50 KYP4..TC +92 YTP4..TC = +0
 LY....TC: +1 KYP1..TC +1 KYP2..TC +1 KYP3..TC +1 KYP4..TC +1 KYP5..TC = +1
 T.....TC: +1 TIME..TB -1 TIME..TC +1 YTP1..TC +1 YTP2..TC +1 YTP3..TC +1 YTP4..TC +1 YTP5..TC = +0
 B...G1TD: +1 INV.G1TC -1 INV.G1TD +1 INVAG1TC -1 INVAG1TD +10 TIME..TC -10 TIME..TD -50 KYP1..TD +80 YTP1..TD = +0
 B...G2TD: +1 INV.G2TC -1 INV.G2TD +1 INVAG2TC -1 INVAG2TD +13 TIME..TC -13 TIME..TD -20 KYP2..TD +93 YTP2..TD = +0
 B...G3TD: -300 KL..TDL1 +1 INV.G3TC -1 INV.G3TD +1 INVAG3TC -1 INVAG3TD +25 TIME..TC -25 TIME..TD -50 KYP3..TD +65 YTP3..TD = +0
 B...G4TD: +1 INV.G4TC -1 INV.G4TD +1 INVAG4TC -1 INVAG4TD +12 TIME..TC -12 TIME..TD -50 KYP4..TD +92 YTP4..TD = +0
 LY....TD: +1 KYP1..TD +1 KYP2..TD +1 KYP3..TD +1 KYP4..TD +1 KYP5..TD = +1
 T.....TD: +1 TIME..TC -1 TIME..TD +1 YTP1..TD +1 YTP2..TD +1 YTP3..TD +1 YTP4..TD +1 YTP5..TD = +0
 B...G1TE: +1 INV.G1TD -1 INV.G1TE +1 INVAG1TD -1 INVAG1TE +10 TIME..TD -10 TIME..TE -50 KYP1..TE +80 YTP1..TE = +0
 B...G2TE: +1 INV.G2TD -1 INV.G2TE +1 INVAG2TD -1 INVAG2TE +13 TIME..TD -13 TIME..TE -20 KYP2..TE +93 YTP2..TE = +0
 B...G3TE: -300 KL..TEL1 +1 INV.G3TD -1 INV.G3TE +1 INVAG3TD -1 INVAG3TE +25 TIME..TD -25 TIME..TE -50 KYP3..TE +65 YTP3..TE = +0
 B...G4TE: +1 INV.G4TD -1 INV.G4TE +1 INVAG4TD -1 INVAG4TE +12 TIME..TD -12 TIME..TE -50 KYP4..TE +92 YTP4..TE = +0
 LY....TE: +1 KYP1..TE +1 KYP2..TE +1 KYP3..TE +1 KYP4..TE +1 KYP5..TE = +1
 T.....TE: +1 TIME..TD -1 TIME..TE +1 YTP1..TE +1 YTP2..TE +1 YTP3..TE +1 YTP4..TE +1 YTP5..TE = +0
 B...G1TF: +1 INV.G1TE -1 INV.G1TF +1 INVAG1TE -1 INVAG1TF +10 TIME..TE -10 TIME..TF -50 KYP1..TF +80 YTP1..TF = +0
 B...G2TF: +1 INV.G2TE -1 INV.G2TF +1 INVAG2TE -1 INVAG2TF +13 TIME..TE -13 TIME..TF -20 KYP2..TF +93 YTP2..TF = +0
 B...G3TF: -300 KL..TFL1 +1 INV.G3TE -1 INV.G3TF +1 INVAG3TE -1 INVAG3TF +25 TIME..TE -25 TIME..TF -50 KYP3..TF +65 YTP3..TF = +0
 B...G4TF: +1 INV.G4TE -1 INV.G4TF +1 INVAG4TE -1 INVAG4TF +12 TIME..TE -12 TIME..TF -50 KYP4..TF +92 YTP4..TF = +0
 LY....TF: +1 KYP1..TF +1 KYP2..TF +1 KYP3..TF +1 KYP4..TF +1 KYP5..TF = +1
 T.....TF: +1 TIME..TE -1 TIME..TF +1 YTP1..TF +1 YTP2..TF +1 YTP3..TF +1 YTP4..TF +1 YTP5..TF = +0
 B...G1TG: +1 INV.G1TF -1 INV.G1TG +1 INVAG1TF -1 INVAG1TG +10 TIME..TF -10 TIME..TG -50 KYP1..TG +80 YTP1..TG = +0
 B...G2TG: +1 INV.G2TF -1 INV.G2TG +1 INVAG2TF -1 INVAG2TG +13 TIME..TF -13 TIME..TG -20 KYP2..TG +93 YTP2..TG = +0
 B...G3TG: -300 KL..TGL1 +1 INV.G3TF -1 INV.G3TG +1 INVAG3TF -1 INVAG3TG +25 TIME..TF -25 TIME..TG -50 KYP3..TG +65 YTP3..TG = +0
 B...G4TG: +1 INV.G4TF -1 INV.G4TG +1 INVAG4TF -1 INVAG4TG +12 TIME..TF -12 TIME..TG -50 KYP4..TG +92 YTP4..TG = +0
 LY....TG: +1 KYP1..TG +1 KYP2..TG +1 KYP3..TG +1 KYP4..TG +1 KYP5..TG = +1
 T.....TG: +1 TIME..TF -1 TIME..TG +1 YTP1..TG +1 YTP2..TG +1 YTP3..TG +1 YTP4..TG +1 YTP5..TG = +0
 B...G1TH: +1 INV.G1TG -1 INV.G1TH +1 INVAG1TG -1 INVAG1TH +10 TIME..TG -10 TIME..TH -50 KYP1..TH +80 YTP1..TH = +0
 B...G2TH: +1 INV.G2TG -1 INV.G2TH +1 INVAG2TG -1 INVAG2TH +13 TIME..TG -13 TIME..TH -20 KYP2..TH +93 YTP2..TH = +0
 B...G3TH: +1 INV.G3TG -1 INV.G3TH +1 INVAG3TG -1 INVAG3TH +25 TIME..TG -25 TIME..TH -50 KYP3..TH +65 YTP3..TH = +0
 B...G4TH: +1 INV.G4TG -1 INV.G4TH +1 INVAG4TG -1 INVAG4TH +12 TIME..TG -12 TIME..TH -50 KYP4..TH +92 YTP4..TH = +0
 LY....TH: +1 KYP1..TH +1 KYP2..TH +1 KYP3..TH +1 KYP4..TH +1 KYP5..TH = +1
 T.....TH: +1 TIME..TG -1 TIME..TH +1 YTP1..TH +1 YTP2..TH +1 YTP3..TH +1 YTP4..TH +1 YTP5..TH = +0
 LBL1....: +1 KL..TCL1 +1 KL..TDL1 +1 KL..TEL1 +1 KL..TFL1 +1 KL..TGL1 = +1
 LMP1..TA: -60 KYP1..TA +1 YTP1..TA <= +0
 LNP1..TA: +15 KYP1..TA -1 YTP1..TA <= +0
 LMP1..TB: -60 KYP1..TB +1 YTP1..TB <= +0
 LNP1..TB: +15 KYP1..TB -1 YTP1..TB <= +0
 R.P1..TB: +4000 KYP1..TB -1 P.P1..TB +4000 KYP2..TA +4000 KYP3..TA +3000 KYP4..TA <= +4000
 LMP1..TC: -60 KYP1..TC +1 YTP1..TC <= +0
 LNP1..TC: +15 KYP1..TC -1 YTP1..TC <= +0
 LBL1MNTC: +100 KL..TCL1 -1 TIME..TC <= +0
 LBL1MXTC: +180 KL..TCL1 +1 TIME..TB <= +280
 R.P1..TC: +4000 KYP1..TC -1 P.P1..TC +4000 KYP2..TB +4000 KYP3..TB +3000 KYP4..TB <= +4000
 LMP1..TD: -60 KYP1..TD +1 YTP1..TD <= +0
 LNP1..TD: +15 KYP1..TD -1 YTP1..TD <= +0
 LBL1MNTD: +100 KL..TDL1 -1 TIME..TD <= +0
 LBL1MXTD: +180 KL..TDL1 +1 TIME..TC <= +280
 R.P1..TD: +4000 KYP1..TD -1 P.P1..TD +4000 KYP2..TC +4000 KYP3..TC +3000 KYP4..TC <= +4000
 LMP1..TE: -60 KYP1..TE +1 YTP1..TE <= +0
 LNP1..TE: +15 KYP1..TE -1 YTP1..TE <= +0
 LBL1MNTE: +100 KL..TEL1 -1 TIME..TE <= +0
 LBL1MXTE: +180 KL..TEL1 +1 TIME..TD <= +280
 R.P1..TE: +4000 KYP1..TE -1 P.P1..TE +4000 KYP2..TD +4000 KYP3..TD +3000 KYP4..TD <= +4000
 LMP1..TF: -60 KYP1..TF +1 YTP1..TF <= +0
 LNP1..TF: +15 KYP1..TF -1 YTP1..TF <= +0
 LBL1MNTF: +100 KL..TFL1 -1 TIME..TF <= +0
 LBL1MXTF: +180 KL..TFL1 +1 TIME..TE <= +280
 R.P1..TF: +4000 KYP1..TF -1 P.P1..TF +4000 KYP2..TE +4000 KYP3..TE +3000 KYP4..TE <= +4000
 LMP1..TG: -60 KYP1..TG +1 YTP1..TG <= +0
 LNP1..TG: +15 KYP1..TG -1 YTP1..TG <= +0
 LBL1MNTG: +100 KL..TGL1 -1 TIME..TG <= +0
 LBL1MXTG: +180 KL..TGL1 +1 TIME..TF <= +280
 R.P1..TG: +4000 KYP1..TG -1 P.P1..TG +4000 KYP2..TF +4000 KYP3..TF +3000 KYP4..TF <= +4000
 BS.12.TH: +2 INV.G1TH +0.51282 INV.G2TH >= +771.28205
 BS.123TH: +0.5 INV.G1TH +0.25641 INV.G2TH +0.2 INV.G3TH >= +315.64103
 BS.124TH: +0.5 INV.G1TH +0.25641 INV.G2TH +0.41667 INV.G4TH >= +337.30769
 BS.13.TH: +0.66667 INV.G1TH +0.26667 INV.G3TH >= +346.66667
 BS.134TH: +0.33333 INV.G1TH +0.13333 INV.G3TH +0.27778 INV.G4TH >= +261.11111
 BS.14.TH: +0.66667 INV.G1TH +0.55556 INV.G4TH >= +375.55556
 LMP1..TH: -60 KYP1..TH +1 YTP1..TH <= +0
 LNP1..TH: +15 KYP1..TH -1 YTP1..TH <= +0
 R.P1..TH: +4000 KYP1..TH -1 P.P1..TH +4000 KYP2..TG +4000 KYP3..TG +3000 KYP4..TG <= +4000
 LMP2..TA: -60 KYP2..TA +1 YTP2..TA <= +0
 LNP2..TA: +5 KYP2..TA -1 YTP2..TA <= +0
 LMP2..TB: -60 KYP2..TB +1 YTP2..TB <= +0
 LNP2..TB: +5 KYP2..TB -1 YTP2..TB <= +0
 R.P2..TB: +4000 KYP1..TA +4000 KYP2..TB -1 P.P2..TB +3000 KYP3..TA +4000 KYP4..TA <= +4000
 LMP2..TC: -60 KYP2..TC +1 YTP2..TC <= +0
 LNP2..TC: +5 KYP2..TC -1 YTP2..TC <= +0
 R.P2..TC: +4000 KYP1..TB +4000 KYP2..TC -1 P.P2..TC +3000 KYP3..TB +4000 KYP4..TB <= +4000
 LMP2..TD: -60 KYP2..TD +1 YTP2..TD <= +0
 LNP2..TD: +5 KYP2..TD -1 YTP2..TD <= +0
 R.P2..TD: +4000 KYP1..TC +4000 KYP2..TD -1 P.P2..TD +3000 KYP3..TC +4000 KYP4..TC <= +4000
 LMP2..TE: -60 KYP2..TE +1 YTP2..TE <= +0
 LNP2..TE: +5 KYP2..TE -1 YTP2..TE <= +0
 R.P2..TE: +4000 KYP1..TD +4000 KYP2..TE -1 P.P2..TE +3000 KYP3..TD +4000 KYP4..TD <= +4000
 LMP2..TF: -60 KYP2..TF +1 YTP2..TF <= +0
 LNP2..TF: +5 KYP2..TF -1 YTP2..TF <= +0
 R.P2..TF: +4000 KYP1..TE +4000 KYP2..TF -1 P.P2..TF +3000 KYP3..TE +4000 KYP4..TE <= +4000
 LMP2..TG: -60 KYP2..TG +1 YTP2..TG <= +0
 LNP2..TG: +5 KYP2..TG -1 YTP2..TG <= +0
 R.P2..TG: +4000 KYP1..TF +4000 KYP2..TG -1 P.P2..TG +3000 KYP3..TF +4000 KYP4..TF <= +4000
 BS.23.TH: +0.51282 INV.G2TH +0.8 INV.G3TH >= +251.28205
 BS.234TH: +0.25641 INV.G2TH +0.2 INV.G3TH +0.41667 INV.G4TH >= +207.30769
 BS.24.TH: +0.51282 INV.G2TH +1.66667 INV.G4TH >= +337.94872
 LMP2..TH: -60 KYP2..TH +1 YTP2..TH <= +0
 LNP2..TH: +5 KYP2..TH -1 YTP2..TH <= +0
 R.P2..TH: +4000 KYP1..TG +4000 KYP2..TH -1 P.P2..TH +3000 KYP3..TG +4000 KYP4..TG <= +4000
 LMP3..TA: -60 KYP3..TA +1 YTP3..TA <= +0
 LNP3..TA: +15 KYP3..TA -1 YTP3..TA <= +0
 LSP3..TA: -1 KYP2..TB +1 KYP3..TA <= +0
 LMP3..TB: -60 KYP3..TB +1 YTP3..TB <= +0
 LNP3..TB: +15 KYP3..TB -1 YTP3..TB <= +0
 LSP3..TB: -1 KYP2..TA -1 KYP2..TC +1 KYP3..TB <= +0
 R.P3..TB: +3000 KYP1..TA +4000 KYP2..TA +4000 KYP3..TB -1 P.P3..TB +4000 KYP4..TA <= +4000
 LMP3..TC: -60 KYP3..TC +1 YTP3..TC <= +0
 LNP3..TC: +15 KYP3..TC -1 YTP3..TC <= +0
 LSP3..TC: -1 KYP2..TB -1 KYP2..TD +1 KYP3..TC <= +0
 R.P3..TC: +3000 KYP1..TB +4000 KYP2..TB +4000 KYP3..TC -1 P.P3..TC +4000 KYP4..TB <= +4000
 LMP3..TD: -60 KYP3..TD +1 YTP3..TD <= +0
 LNP3..TD: +15 KYP3..TD -1 YTP3..TD <= +0
 LSP3..TD: -1 KYP2..TC -1 KYP2..TE +1 KYP3..TD <= +0
 R.P3..TD: +3000 KYP1..TC +4000 KYP2..TC +4000 KYP3..TD -1 P.P3..TD +4000 KYP4..TC <= +4000
 LMP3..TE: -60 KYP3..TE +1 YTP3..TE <= +0
 LNP3..TE: +15 KYP3..TE -1 YTP3..TE <= +0
 LSP3..TE: -1 KYP2..TD -1 KYP2..TF +1 KYP3..TE <= +0
 R.P3..TE: +3000 KYP1..TD +4000 KYP2..TD +4000 KYP3..TE -1 P.P3..TE +4000 KYP4..TD <= +4000
 LMP3..TF: -60 KYP3..TF +1 YTP3..TF <= +0
 LNP3..TF: +15 KYP3..TF -1 YTP3..TF <= +0
 LSP3..TF: -1 KYP2..TE -1 KYP2..TG +1 KYP3..TF <= +0
 R.P3..TF: +3000 KYP1..TE +4000 KYP2..TE +4000 KYP3..TF -1 P.P3..TF +4000 KYP4..TE <= +4000
 LMP3..TG: -60 KYP3..TG +1 YTP3..TG <= +0
 LNP3..TG: +15 KYP3..TG -1 YTP3..TG <= +0
 LSP3..TG: -1 KYP2..TF -1 KYP2..TH +1 KYP3..TG <= +0
 R.P3..TG: +3000 KYP1..TF +4000 KYP2..TF +4000 KYP3..TG -1 P.P3..TG +4000 KYP4..TF <= +4000
 BS.34.TH: +0.26667 INV.G3TH +0.55556 INV.G4TH >= +202.22222
 LMP3..TH: -60 KYP3..TH +1 YTP3..TH <= +0
 LNP3..TH: +15 KYP3..TH -1 YTP3..TH <= +0
 LSP3..TH: -1 KYP2..TG +1 KYP3..TH <= +0
 R.P3..TH: +3000 KYP1..TG +4000 KYP2..TG +4000 KYP3..TH -1 P.P3..TH +4000 KYP4..TG <= +4000
 LMP4..TA: -60 KYP4..TA +1 YTP4..TA <= +0
 LNP4..TA: +15 KYP4..TA -1 YTP4..TA <= +0
 LMP4..TB: -60 KYP4..TB +1 YTP4..TB <= +0
 LNP4..TB: +15 KYP4..TB -1 YTP4..TB <= +0
 R.P4..TB: +4000 KYP1..TA +3000 KYP2..TA +4000 KYP3..TA +4000 KYP4..TB -1 P.P4..TB <= +4000
 LMP4..TC: -60 KYP4..TC +1 YTP4..TC <= +0
 LNP4..TC: +15 KYP4..TC -1 YTP4..TC <= +0
 R.P4..TC: +4000 KYP1..TB +3000 KYP2..TB +4000 KYP3..TB +4000 KYP4..TC -1 P.P4..TC <= +4000
 LMP4..TD: -60 KYP4..TD +1 YTP4..TD <= +0
 LNP4..TD: +15 KYP4..TD -1 YTP4..TD <= +0
 R.P4..TD: +4000 KYP1..TC +3000 KYP2..TC +4000 KYP3..TC +4000 KYP4..TD -1 P.P4..TD <= +4000
 LMP4..TE: -60 KYP4..TE +1 YTP4..TE <= +0
 LNP4..TE: +15 KYP4..TE -1 YTP4..TE <= +0
 R.P4..TE: +4000 KYP1..TD +3000 KYP2..TD +4000 KYP3..TD +4000 KYP4..TE -1 P.P4..TE <= +4000
 LMP4..TF: -60 KYP4..TF +1 YTP4..TF <= +0
 LNP4..TF: +15 KYP4..TF -1 YTP4..TF <= +0
 R.P4..TF: +4000 KYP1..TE +3000 KYP2..TE +4000 KYP3..TE +4000 KYP4..TF -1 P.P4..TF <= +4000
 LMP4..TG: -60 KYP4..TG +1 YTP4..TG <= +0
 LNP4..TG: +15 KYP4..TG -1 YTP4..TG <= +0
 R.P4..TG: +4000 KYP1..TF +3000 KYP2..TF +4000 KYP3..TF +4000 KYP4..TG -1 P.P4..TG <= +4000
 LMP4..TH: -60 KYP4..TH +1 YTP4..TH <= +0
 LNP4..TH: +15 KYP4..TH -1 YTP4..TH <= +0
 R.P4..TH: +4000 KYP1..TG +3000 KYP2..TG +4000 KYP3..TG +4000 KYP4..TH -1 P.P4..TH <= +4000
 LMP5..TA: -60 KYP5..TA +1 YTP5..TA <= +0
 LNP5..TA: +20 KYP5..TA -1 YTP5..TA <= +0
 LMP5..TB: -60 KYP5..TB +1 YTP5..TB <= +0
 LNP5..TB: +20 KYP5..TB -1 YTP5..TB <= +0
 R.P5..TB: +2500 KYP1..TA +2000 KYP2..TA +2500 KYP3..TA +2500 KYP4..TA +4000 KYP5..TB -1 P.P5..TB <= +4000
 LMP5..TC: -60 KYP5..TC +1 YTP5..TC <= +0
 LNP5..TC: +20 KYP5..TC -1 YTP5..TC <= +0
 R.P5..TC: +2500 KYP1..TB +2000 KYP2..TB +2500 KYP3..TB +2500 KYP4..TB +4000 KYP5..TC -1 P.P5..TC <= +4000
 LMP5..TD: -60 KYP5..TD +1 YTP5..TD <= +0
 LNP5..TD: +20 KYP5..TD -1 YTP5..TD <= +0
 R.P5..TD: +2500 KYP1..TC +2000 KYP2..TC +2500 KYP3..TC +2500 KYP4..TC +4000 KYP5..TD -1 P.P5..TD <= +4000
 LMP5..TE: -60 KYP5..TE +1 YTP5..TE <= +0
 LNP5..TE: +20 KYP5..TE -1 YTP5..TE <= +0
 R.P5..TE: +2500 KYP1..TD +2000 KYP2..TD +2500 KYP3..TD +2500 KYP4..TD +4000 KYP5..TE -1 P.P5..TE <= +4000
 LMP5..TF: -60 KYP5..TF +1 YTP5..TF <= +0
 LNP5..TF: +20 KYP5..TF -1 YTP5..TF <= +0
 R.P5..TF: +2500 KYP1..TE +2000 KYP2..TE +2500 KYP3..TE +2500 KYP4..TE +4000 KYP5..TF -1 P.P5..TF <= +4000
 LMP5..TG: -60 KYP5..TG +1 YTP5..TG <= +0
 LNP5..TG: +20 KYP5..TG -1 YTP5..TG <= +0
 R.P5..TG: +2500 KYP1..TF +2000 KYP2..TF +2500 KYP3..TF +2500 KYP4..TF +4000 KYP5..TG -1 P.P5..TG <= +4000
 LMP5..TH: -60 KYP5..TH +1 YTP5..TH <= +0
 LNP5..TH: +20 KYP5..TH -1 YTP5..TH <= +0
 R.P5..TH: +2500 KYP1..TG +2000 KYP2..TG +2500 KYP3..TG +2500 KYP4..TG +4000 KYP5..TH -1 P.P5..TH <= +4000
bounds
 FOC..... free
 KL..TCL1 <= 1
 KL..TDL1 = 0
 KL..TEL1 = 0
 KL..TFL1 = 0
 KL..TGL1 = 1
 INV.G1T. = 1300
 INV.G2T. = 600
 INV.G3T. = 110
 INV.G4T. = 900
 300 <= INV.G1TA
 100 <= INV.G2TA
 100 <= INV.G3TA
 100 <= INV.G4TA
 300 <= INV.G1TB
 100 <= INV.G2TB
 100 <= INV.G3TB
 100 <= INV.G4TB
 300 <= INV.G1TC
 100 <= INV.G2TC
 100 <= INV.G3TC
 100 <= INV.G4TC
 300 <= INV.G1TD
 100 <= INV.G2TD
 100 <= INV.G3TD
 100 <= INV.G4TD
 300 <= INV.G1TE
 100 <= INV.G2TE
 100 <= INV.G3TE
 100 <= INV.G4TE
 300 <= INV.G1TF
 100 <= INV.G2TF
 100 <= INV.G3TF
 100 <= INV.G4TF
 300 <= INV.G1TG
 100 <= INV.G2TG
 100 <= INV.G3TG
 100 <= INV.G4TG
 300 <= INV.G1TH
 100 <= INV.G2TH
 100 <= INV.G3TH
 100 <= INV.G4TH
 -300 <= INVAG1TA <= 0
 -100 <= INVAG2TA <= 0
 -100 <= INVAG3TA <= 0
 -100 <= INVAG4TA <= 0
 -300 <= INVAG1TB <= 0
 -100 <= INVAG2TB <= 0
 -100 <= INVAG3TB <= 0
 -100 <= INVAG4TB <= 0
 -300 <= INVAG1TC <= 0
 -100 <= INVAG2TC <= 0
 -100 <= INVAG3TC <= 0
 -100 <= INVAG4TC <= 0
 -300 <= INVAG1TD <= 0
 -100 <= INVAG2TD <= 0
 -100 <= INVAG3TD <= 0
 -100 <= INVAG4TD <= 0
 -300 <= INVAG1TE <= 0
 -100 <= INVAG2TE <= 0
 -100 <= INVAG3TE <= 0
 -100 <= INVAG4TE <= 0
 -300 <= INVAG1TF <= 0
 -100 <= INVAG2TF <= 0
 -100 <= INVAG3TF <= 0
 -100 <= INVAG4TF <= 0
 -300 <= INVAG1TG <= 0
 -100 <= INVAG2TG <= 0
 -100 <= INVAG3TG <= 0
 -100 <= INVAG4TG <= 0
 -300 <= INVAG1TH <= 0
 -100 <= INVAG2TH <= 0
 -100 <= INVAG3TH <= 0
 -100 <= INVAG4TH <= 0
 TIME..T. = 0
 TIME..TH = 180
 KYP1..TA <= 1
 KYP1..TB <= 1
 KYP1..TC <= 1
 KYP1..TD = 1
 KYP1..TE <= 1
 KYP1..TF <= 1
 KYP1..TG <= 1
 KYP1..TH <= 1
 KYP2..TA <= 1
 KYP2..TB = 1
 KYP2..TC <= 1
 KYP2..TD <= 1
 KYP2..TE <= 1
 KYP2..TF = 1
 KYP2..TG <= 1
 KYP2..TH <= 1
 KYP3..TA = 1
 KYP3..TB <= 1
 KYP3..TC <= 1
 KYP3..TD <= 1
 KYP3..TE = 1
 KYP3..TF <= 1
 KYP3..TG = 1
 KYP3..TH <= 1
 KYP4..TA <= 1
 KYP4..TB <= 1
 KYP4..TC = 1
 KYP4..TD <= 1
 KYP4..TE <= 1
 KYP4..TF <= 1
 KYP4..TG <= 1
 KYP4..TH <= 1
 KYP5..TA <= 1
 KYP5..TB <= 1
 KYP5..TC <= 1
 KYP5..TD <= 1
 KYP5..TE <= 1
 KYP5..TF <= 1
 KYP5..TG <= 1
 KYP5..TH = 1
end
